11629 9850 9828
12437 8594 8657
10662 9886 11394
8926 11193 9170
10561 9135 11713
11675 10364 7245
11586 9992 9621
10818 10558 10563
12160 9788 7248
8175 8031 11880
11162 10749 7891
9265 10072 11650
9876 10617 10876
11310 9810 10584
8701 8212 11856
8939 10783 10692
9921 10324 11335
9984 11130 9601
11095 9117 11235
10164 9590 11736
11655 10321 8235
10759 10895 9851
12170 9678 8406
12265 9439 7969
11909 10090 7770
11854 9109 10342
9531 11259 8153
11570 10187 9116
12280 8870 9633
10508 11181 7650
9287 9459 11757
8857 10864 10556
11380 10222 9676
9817 10954 10164
11433 8646 11048
11785 9099 10474
10753 9444 11468
11244 10319 9854
11173 10696 8658
12055 9611 9119
9719 10719 10766
10947 10907 7327
